219	1360
227	1330
232	1107
256	1096
257	1029
260	822
300	813
301	734
328	724
334	662
373	611
383	597
400	581
413	574
428	560
436	526
472	509
496	478
501	477
511	458
533	440
554	416
584	398
611	391
657	368
696	366
720	362
733	341
763	333
787	330
826	327
834	319
872	318
879	312
907	310
918	295
936	292
1005	284
1022	282
1032	267
1107	255
1153	232
1253	225
1358	213
1385	211
1499	208
